% Instance for pentominoes model generated using https://github.com/zayenz/minizinc-pentominoes-generator
% Instance generated for board size 15 with 5 tiles using 17 as seed
% Generated board
%    222233344444444
%    222233344444444
%    222233334444444
%    222233334444444
%    222233333444444
%    222233333444444
%    222223333444444
%    222223334444445
%    222224444444455
%    222244444445555
%    222444454445555
%    122444455445555
%    112444455555555
%    111444555555555
%    111455555555555

size = 15;
tiles = 5;
expressions = [
    "( ([2 3 4 5 6]* 1{1} [2 3 4 5 6]{14} [2 3 4 5 6] 1{2} [2 3 4 5 6]{13} [2 3 4 5 6] 1{3} [2 3 4 5 6]{12} [2 3 4 5 6] 1{3} [2 3 4 5 6]*) | ([2 3 4 5 6]* 1{4} [2 3 4 5 6]{11} [2 3 4 5 6] 1{3} [2 3 4 5 6]{12} [2 3 4 5 6] 1{2} [2 3 4 5 6]*) | ([2 3 4 5 6]* 1{3} [2 3 4 5 6] [2 3 4 5 6]{12} 1{3} [2 3 4 5 6] [2 3 4 5 6]{13} 1{2} [2 3 4 5 6] [2 3 4 5 6]{14} 1{1} [2 3 4 5 6]*) | ([2 3 4 5 6]* 1{2} [2 3 4 5 6] [2 3 4 5 6]{12} 1{3} [2 3 4 5 6] [2 3 4 5 6]{11} 1{4} [2 3 4 5 6]*) | ([2 3 4 5 6]* 1{1} [2 3 4 5 6] [2 3 4 5 6]{13} 1{2} [2 3 4 5 6] [2 3 4 5 6]{12} 1{3} [2 3 4 5 6] [2 3 4 5 6]{12} 1{3} [2 3 4 5 6]*) | ([2 3 4 5 6]* 1{4} [2 3 4 5 6] [2 3 4 5 6]{12} 1{3} [2 3 4 5 6] [2 3 4 5 6]{13} 1{2} [2 3 4 5 6]*) | ([2 3 4 5 6]* 1{3} [2 3 4 5 6]{12} [2 3 4 5 6] 1{3} [2 3 4 5 6]{12} [2 3 4 5 6] 1{2} [2 3 4 5 6]{13} [2 3 4 5 6] 1{1} [2 3 4 5 6]*) | ([2 3 4 5 6]* 1{2} [2 3 4 5 6]{13} [2 3 4 5 6] 1{3} [2 3 4 5 6]{12} [2 3 4 5 6] 1{4} [2 3 4 5 6]*) )",
    "( ([1 3 4 5 6]* 2{4} [1 3 4 5 6]{11} [1 3 4 5 6] 2{4} [1 3 4 5 6]{11} [1 3 4 5 6] 2{4} [1 3 4 5 6]{11} [1 3 4 5 6] 2{4} [1 3 4 5 6]{11} [1 3 4 5 6] 2{4} [1 3 4 5 6]{11} [1 3 4 5 6] 2{4} [1 3 4 5 6]{11} [1 3 4 5 6] 2{5} [1 3 4 5 6]{10} [1 3 4 5 6] 2{5} [1 3 4 5 6]{10} [1 3 4 5 6] 2{5} [1 3 4 5 6]{10} [1 3 4 5 6] 2{4} [1 3 4 5 6]{11} [1 3 4 5 6] 2{3} [1 3 4 5 6]{12} [1 3 4 5 6] [1 3 4 5 6]{1} 2{2} [1 3 4 5 6]{12} [1 3 4 5 6] [1 3 4 5 6]{2} 2{1} [1 3 4 5 6]*) | ([1 3 4 5 6]* 2{11} [1 3 4 5 6] [1 3 4 5 6]{3} 2{12} [1 3 4 5 6] [1 3 4 5 6]{2} 2{13} [1 3 4 5 6] [1 3 4 5 6]{5} 2{10} [1 3 4 5 6] [1 3 4 5 6]{6} 2{3} [1 3 4 5 6]*) | ([1 3 4 5 6]* 2{1} [1 3 4 5 6]{2} [1 3 4 5 6] [1 3 4 5 6]{12} 2{2} [1 3 4 5 6]{1} [1 3 4 5 6] [1 3 4 5 6]{12} 2{3} [1 3 4 5 6] [1 3 4 5 6]{11} 2{4} [1 3 4 5 6] [1 3 4 5 6]{10} 2{5} [1 3 4 5 6] [1 3 4 5 6]{10} 2{5} [1 3 4 5 6] [1 3 4 5 6]{10} 2{5} [1 3 4 5 6] [1 3 4 5 6]{11} 2{4} [1 3 4 5 6] [1 3 4 5 6]{11} 2{4} [1 3 4 5 6] [1 3 4 5 6]{11} 2{4} [1 3 4 5 6] [1 3 4 5 6]{11} 2{4} [1 3 4 5 6] [1 3 4 5 6]{11} 2{4} [1 3 4 5 6] [1 3 4 5 6]{11} 2{4} [1 3 4 5 6]*) | ([1 3 4 5 6]* 2{3} [1 3 4 5 6]{6} [1 3 4 5 6] 2{10} [1 3 4 5 6]{5} [1 3 4 5 6] 2{13} [1 3 4 5 6]{2} [1 3 4 5 6] 2{12} [1 3 4 5 6]{3} [1 3 4 5 6] 2{11} [1 3 4 5 6]*) | ([1 3 4 5 6]* 2{4} [1 3 4 5 6] [1 3 4 5 6]{11} 2{4} [1 3 4 5 6] [1 3 4 5 6]{11} 2{4} [1 3 4 5 6] [1 3 4 5 6]{11} 2{4} [1 3 4 5 6] [1 3 4 5 6]{11} 2{4} [1 3 4 5 6] [1 3 4 5 6]{11} 2{4} [1 3 4 5 6] [1 3 4 5 6]{10} 2{5} [1 3 4 5 6] [1 3 4 5 6]{10} 2{5} [1 3 4 5 6] [1 3 4 5 6]{10} 2{5} [1 3 4 5 6] [1 3 4 5 6]{11} 2{4} [1 3 4 5 6] [1 3 4 5 6]{12} 2{3} [1 3 4 5 6] [1 3 4 5 6]{12} 2{2} [1 3 4 5 6]{1} [1 3 4 5 6] [1 3 4 5 6]{12} 2{1} [1 3 4 5 6]*) | ([1 3 4 5 6]* 2{11} [1 3 4 5 6]{4} [1 3 4 5 6] 2{12} [1 3 4 5 6]{3} [1 3 4 5 6] 2{13} [1 3 4 5 6]{2} [1 3 4 5 6] 2{10} [1 3 4 5 6]{5} [1 3 4 5 6] [1 3 4 5 6]{6} 2{3} [1 3 4 5 6]*) | ([1 3 4 5 6]* 2{1} [1 3 4 5 6]{12} [1 3 4 5 6] [1 3 4 5 6]{1} 2{2} [1 3 4 5 6]{12} [1 3 4 5 6] 2{3} [1 3 4 5 6]{12} [1 3 4 5 6] 2{4} [1 3 4 5 6]{11} [1 3 4 5 6] 2{5} [1 3 4 5 6]{10} [1 3 4 5 6] 2{5} [1 3 4 5 6]{10} [1 3 4 5 6] 2{5} [1 3 4 5 6]{10} [1 3 4 5 6] 2{4} [1 3 4 5 6]{11} [1 3 4 5 6] 2{4} [1 3 4 5 6]{11} [1 3 4 5 6] 2{4} [1 3 4 5 6]{11} [1 3 4 5 6] 2{4} [1 3 4 5 6]{11} [1 3 4 5 6] 2{4} [1 3 4 5 6]{11} [1 3 4 5 6] 2{4} [1 3 4 5 6]*) | ([1 3 4 5 6]* 2{3} [1 3 4 5 6]{6} [1 3 4 5 6] [1 3 4 5 6]{5} 2{10} [1 3 4 5 6] [1 3 4 5 6]{2} 2{13} [1 3 4 5 6] [1 3 4 5 6]{3} 2{12} [1 3 4 5 6] [1 3 4 5 6]{4} 2{11} [1 3 4 5 6]*) )",
    "( ([1 2 4 5 6]* 3{3} [1 2 4 5 6]{8} [1 2 4 5 6] [1 2 4 5 6]{4} 3{3} [1 2 4 5 6]{8} [1 2 4 5 6] [1 2 4 5 6]{4} 3{4} [1 2 4 5 6]{7} [1 2 4 5 6] [1 2 4 5 6]{4} 3{4} [1 2 4 5 6]{7} [1 2 4 5 6] [1 2 4 5 6]{4} 3{5} [1 2 4 5 6]{6} [1 2 4 5 6] [1 2 4 5 6]{4} 3{5} [1 2 4 5 6]{6} [1 2 4 5 6] [1 2 4 5 6]{5} 3{4} [1 2 4 5 6]{6} [1 2 4 5 6] [1 2 4 5 6]{5} 3{3} [1 2 4 5 6]*) | ([1 2 4 5 6]* 3{6} [1 2 4 5 6] [1 2 4 5 6]{7} 3{8} [1 2 4 5 6] [1 2 4 5 6]{7} 3{8} [1 2 4 5 6] [1 2 4 5 6]{7} 3{6} [1 2 4 5 6]{2} [1 2 4 5 6] [1 2 4 5 6]{8} 3{3} [1 2 4 5 6]*) | ([1 2 4 5 6]* 3{3} [1 2 4 5 6]{5} [1 2 4 5 6] [1 2 4 5 6]{6} 3{4} [1 2 4 5 6]{5} [1 2 4 5 6] [1 2 4 5 6]{6} 3{5} [1 2 4 5 6]{4} [1 2 4 5 6] [1 2 4 5 6]{6} 3{5} [1 2 4 5 6]{4} [1 2 4 5 6] [1 2 4 5 6]{7} 3{4} [1 2 4 5 6]{4} [1 2 4 5 6] [1 2 4 5 6]{7} 3{4} [1 2 4 5 6]{4} [1 2 4 5 6] [1 2 4 5 6]{8} 3{3} [1 2 4 5 6]{4} [1 2 4 5 6] [1 2 4 5 6]{8} 3{3} [1 2 4 5 6]*) | ([1 2 4 5 6]* 3{3} [1 2 4 5 6]{8} [1 2 4 5 6] [1 2 4 5 6]{2} 3{6} [1 2 4 5 6]{7} [1 2 4 5 6] 3{8} [1 2 4 5 6]{7} [1 2 4 5 6] 3{8} [1 2 4 5 6]{7} [1 2 4 5 6] 3{6} [1 2 4 5 6]*) | ([1 2 4 5 6]* 3{3} [1 2 4 5 6]{4} [1 2 4 5 6] [1 2 4 5 6]{8} 3{3} [1 2 4 5 6]{4} [1 2 4 5 6] [1 2 4 5 6]{7} 3{4} [1 2 4 5 6]{4} [1 2 4 5 6] [1 2 4 5 6]{7} 3{4} [1 2 4 5 6]{4} [1 2 4 5 6] [1 2 4 5 6]{6} 3{5} [1 2 4 5 6]{4} [1 2 4 5 6] [1 2 4 5 6]{6} 3{5} [1 2 4 5 6]{4} [1 2 4 5 6] [1 2 4 5 6]{6} 3{4} [1 2 4 5 6]{5} [1 2 4 5 6] [1 2 4 5 6]{7} 3{3} [1 2 4 5 6]*) | ([1 2 4 5 6]* 3{6} [1 2 4 5 6]{9} [1 2 4 5 6] 3{8} [1 2 4 5 6]{7} [1 2 4 5 6] 3{8} [1 2 4 5 6]{7} [1 2 4 5 6] [1 2 4 5 6]{2} 3{6} [1 2 4 5 6]{7} [1 2 4 5 6] [1 2 4 5 6]{4} 3{3} [1 2 4 5 6]*) | ([1 2 4 5 6]* 3{3} [1 2 4 5 6]{7} [1 2 4 5 6] [1 2 4 5 6]{5} 3{4} [1 2 4 5 6]{6} [1 2 4 5 6] [1 2 4 5 6]{4} 3{5} [1 2 4 5 6]{6} [1 2 4 5 6] [1 2 4 5 6]{4} 3{5} [1 2 4 5 6]{6} [1 2 4 5 6] [1 2 4 5 6]{4} 3{4} [1 2 4 5 6]{7} [1 2 4 5 6] [1 2 4 5 6]{4} 3{4} [1 2 4 5 6]{7} [1 2 4 5 6] [1 2 4 5 6]{4} 3{3} [1 2 4 5 6]{8} [1 2 4 5 6] [1 2 4 5 6]{4} 3{3} [1 2 4 5 6]*) | ([1 2 4 5 6]* 3{3} [1 2 4 5 6]{4} [1 2 4 5 6] [1 2 4 5 6]{7} 3{6} [1 2 4 5 6]{2} [1 2 4 5 6] [1 2 4 5 6]{7} 3{8} [1 2 4 5 6] [1 2 4 5 6]{7} 3{8} [1 2 4 5 6] [1 2 4 5 6]{9} 3{6} [1 2 4 5 6]*) )",
    "( ([1 2 3 5 6]* 4{8} [1 2 3 5 6] [1 2 3 5 6]{7} 4{8} [1 2 3 5 6] [1 2 3 5 6]{8} 4{7} [1 2 3 5 6] [1 2 3 5 6]{8} 4{7} [1 2 3 5 6] [1 2 3 5 6]{9} 4{6} [1 2 3 5 6] [1 2 3 5 6]{9} 4{6} [1 2 3 5 6] [1 2 3 5 6]{9} 4{6} [1 2 3 5 6] [1 2 3 5 6]{8} 4{6} [1 2 3 5 6]{1} [1 2 3 5 6] [1 2 3 5 6]{5} 4{8} [1 2 3 5 6]{2} [1 2 3 5 6] [1 2 3 5 6]{4} 4{7} [1 2 3 5 6]{4} [1 2 3 5 6] [1 2 3 5 6]{3} 4{4} [1 2 3 5 6]{1} 4{3} [1 2 3 5 6]{4} [1 2 3 5 6] [1 2 3 5 6]{3} 4{4} [1 2 3 5 6]{2} 4{2} [1 2 3 5 6]{4} [1 2 3 5 6] [1 2 3 5 6]{3} 4{4} [1 2 3 5 6]{8} [1 2 3 5 6] [1 2 3 5 6]{3} 4{3} [1 2 3 5 6]{9} [1 2 3 5 6] [1 2 3 5 6]{3} 4{1} [1 2 3 5 6]*) | ([1 2 3 5 6]* 4{5} [1 2 3 5 6]{10} [1 2 3 5 6] [1 2 3 5 6]{1} 4{5} [1 2 3 5 6]{9} [1 2 3 5 6] [1 2 3 5 6]{1} 4{6} [1 2 3 5 6]{8} [1 2 3 5 6] [1 2 3 5 6]{2} 4{5} [1 2 3 5 6]{8} [1 2 3 5 6] [1 2 3 5 6]{5} 4{2} [1 2 3 5 6]{6} 4{2} [1 2 3 5 6] [1 2 3 5 6]{4} 4{4} [1 2 3 5 6]{3} 4{4} [1 2 3 5 6] [1 2 3 5 6]{3} 4{12} [1 2 3 5 6] [1 2 3 5 6]{3} 4{12} [1 2 3 5 6] [1 2 3 5 6]{6} 4{9} [1 2 3 5 6] [1 2 3 5 6]{6} 4{9} [1 2 3 5 6] [1 2 3 5 6]{7} 4{8} [1 2 3 5 6] [1 2 3 5 6]{8} 4{7} [1 2 3 5 6]*) | ([1 2 3 5 6]* 4{1} [1 2 3 5 6]{3} [1 2 3 5 6] [1 2 3 5 6]{9} 4{3} [1 2 3 5 6]{3} [1 2 3 5 6] [1 2 3 5 6]{8} 4{4} [1 2 3 5 6]{3} [1 2 3 5 6] [1 2 3 5 6]{4} 4{2} [1 2 3 5 6]{2} 4{4} [1 2 3 5 6]{3} [1 2 3 5 6] [1 2 3 5 6]{4} 4{3} [1 2 3 5 6]{1} 4{4} [1 2 3 5 6]{3} [1 2 3 5 6] [1 2 3 5 6]{4} 4{7} [1 2 3 5 6]{4} [1 2 3 5 6] [1 2 3 5 6]{2} 4{8} [1 2 3 5 6]{5} [1 2 3 5 6] [1 2 3 5 6]{1} 4{6} [1 2 3 5 6]{8} [1 2 3 5 6] 4{6} [1 2 3 5 6]{9} [1 2 3 5 6] 4{6} [1 2 3 5 6]{9} [1 2 3 5 6] 4{6} [1 2 3 5 6]{9} [1 2 3 5 6] 4{7} [1 2 3 5 6]{8} [1 2 3 5 6] 4{7} [1 2 3 5 6]{8} [1 2 3 5 6] 4{8} [1 2 3 5 6]{7} [1 2 3 5 6] 4{8} [1 2 3 5 6]*) | ([1 2 3 5 6]* 4{7} [1 2 3 5 6]{8} [1 2 3 5 6] 4{8} [1 2 3 5 6]{7} [1 2 3 5 6] 4{9} [1 2 3 5 6]{6} [1 2 3 5 6] 4{9} [1 2 3 5 6]{6} [1 2 3 5 6] 4{12} [1 2 3 5 6]{3} [1 2 3 5 6] 4{12} [1 2 3 5 6]{3} [1 2 3 5 6] 4{4} [1 2 3 5 6]{3} 4{4} [1 2 3 5 6]{4} [1 2 3 5 6] 4{2} [1 2 3 5 6]{6} 4{2} [1 2 3 5 6]{5} [1 2 3 5 6] [1 2 3 5 6]{8} 4{5} [1 2 3 5 6]{2} [1 2 3 5 6] [1 2 3 5 6]{8} 4{6} [1 2 3 5 6]{1} [1 2 3 5 6] [1 2 3 5 6]{9} 4{5} [1 2 3 5 6]{1} [1 2 3 5 6] [1 2 3 5 6]{10} 4{5} [1 2 3 5 6]*) | ([1 2 3 5 6]* 4{8} [1 2 3 5 6]{7} [1 2 3 5 6] 4{8} [1 2 3 5 6]{7} [1 2 3 5 6] 4{7} [1 2 3 5 6]{8} [1 2 3 5 6] 4{7} [1 2 3 5 6]{8} [1 2 3 5 6] 4{6} [1 2 3 5 6]{9} [1 2 3 5 6] 4{6} [1 2 3 5 6]{9} [1 2 3 5 6] 4{6} [1 2 3 5 6]{9} [1 2 3 5 6] [1 2 3 5 6]{1} 4{6} [1 2 3 5 6]{8} [1 2 3 5 6] [1 2 3 5 6]{2} 4{8} [1 2 3 5 6]{5} [1 2 3 5 6] [1 2 3 5 6]{4} 4{7} [1 2 3 5 6]{4} [1 2 3 5 6] [1 2 3 5 6]{4} 4{3} [1 2 3 5 6]{1} 4{4} [1 2 3 5 6]{3} [1 2 3 5 6] [1 2 3 5 6]{4} 4{2} [1 2 3 5 6]{2} 4{4} [1 2 3 5 6]{3} [1 2 3 5 6] [1 2 3 5 6]{8} 4{4} [1 2 3 5 6]{3} [1 2 3 5 6] [1 2 3 5 6]{9} 4{3} [1 2 3 5 6]{3} [1 2 3 5 6] [1 2 3 5 6]{11} 4{1} [1 2 3 5 6]*) | ([1 2 3 5 6]* 4{5} [1 2 3 5 6] [1 2 3 5 6]{9} 4{5} [1 2 3 5 6]{1} [1 2 3 5 6] [1 2 3 5 6]{8} 4{6} [1 2 3 5 6]{1} [1 2 3 5 6] [1 2 3 5 6]{8} 4{5} [1 2 3 5 6]{2} [1 2 3 5 6] 4{2} [1 2 3 5 6]{6} 4{2} [1 2 3 5 6]{5} [1 2 3 5 6] 4{4} [1 2 3 5 6]{3} 4{4} [1 2 3 5 6]{4} [1 2 3 5 6] 4{12} [1 2 3 5 6]{3} [1 2 3 5 6] 4{12} [1 2 3 5 6]{3} [1 2 3 5 6] 4{9} [1 2 3 5 6]{6} [1 2 3 5 6] 4{9} [1 2 3 5 6]{6} [1 2 3 5 6] 4{8} [1 2 3 5 6]{7} [1 2 3 5 6] 4{7} [1 2 3 5 6]*) | ([1 2 3 5 6]* 4{1} [1 2 3 5 6]{11} [1 2 3 5 6] [1 2 3 5 6]{3} 4{3} [1 2 3 5 6]{9} [1 2 3 5 6] [1 2 3 5 6]{3} 4{4} [1 2 3 5 6]{8} [1 2 3 5 6] [1 2 3 5 6]{3} 4{4} [1 2 3 5 6]{2} 4{2} [1 2 3 5 6]{4} [1 2 3 5 6] [1 2 3 5 6]{3} 4{4} [1 2 3 5 6]{1} 4{3} [1 2 3 5 6]{4} [1 2 3 5 6] [1 2 3 5 6]{4} 4{7} [1 2 3 5 6]{4} [1 2 3 5 6] [1 2 3 5 6]{5} 4{8} [1 2 3 5 6]{2} [1 2 3 5 6] [1 2 3 5 6]{8} 4{6} [1 2 3 5 6]{1} [1 2 3 5 6] [1 2 3 5 6]{9} 4{6} [1 2 3 5 6] [1 2 3 5 6]{9} 4{6} [1 2 3 5 6] [1 2 3 5 6]{9} 4{6} [1 2 3 5 6] [1 2 3 5 6]{8} 4{7} [1 2 3 5 6] [1 2 3 5 6]{8} 4{7} [1 2 3 5 6] [1 2 3 5 6]{7} 4{8} [1 2 3 5 6] [1 2 3 5 6]{7} 4{8} [1 2 3 5 6]*) | ([1 2 3 5 6]* 4{7} [1 2 3 5 6] [1 2 3 5 6]{7} 4{8} [1 2 3 5 6] [1 2 3 5 6]{6} 4{9} [1 2 3 5 6] [1 2 3 5 6]{6} 4{9} [1 2 3 5 6] [1 2 3 5 6]{3} 4{12} [1 2 3 5 6] [1 2 3 5 6]{3} 4{12} [1 2 3 5 6] [1 2 3 5 6]{4} 4{4} [1 2 3 5 6]{3} 4{4} [1 2 3 5 6] [1 2 3 5 6]{5} 4{2} [1 2 3 5 6]{6} 4{2} [1 2 3 5 6] [1 2 3 5 6]{2} 4{5} [1 2 3 5 6]{8} [1 2 3 5 6] [1 2 3 5 6]{1} 4{6} [1 2 3 5 6]{8} [1 2 3 5 6] [1 2 3 5 6]{1} 4{5} [1 2 3 5 6]{9} [1 2 3 5 6] 4{5} [1 2 3 5 6]*) )",
    "( ([1 2 3 4 6]* 5{1} [1 2 3 4 6] [1 2 3 4 6]{13} 5{2} [1 2 3 4 6] [1 2 3 4 6]{11} 5{4} [1 2 3 4 6] [1 2 3 4 6]{7} 5{1} [1 2 3 4 6]{3} 5{4} [1 2 3 4 6] [1 2 3 4 6]{7} 5{2} [1 2 3 4 6]{2} 5{4} [1 2 3 4 6] [1 2 3 4 6]{7} 5{8} [1 2 3 4 6] [1 2 3 4 6]{6} 5{9} [1 2 3 4 6] [1 2 3 4 6]{4} 5{11} [1 2 3 4 6]*) | ([1 2 3 4 6]* 5{1} [1 2 3 4 6]{14} [1 2 3 4 6] 5{1} [1 2 3 4 6]{14} [1 2 3 4 6] 5{2} [1 2 3 4 6]{13} [1 2 3 4 6] 5{5} [1 2 3 4 6]{10} [1 2 3 4 6] 5{4} [1 2 3 4 6]{11} [1 2 3 4 6] 5{3} [1 2 3 4 6]{12} [1 2 3 4 6] 5{3} [1 2 3 4 6]{12} [1 2 3 4 6] 5{6} [1 2 3 4 6]{9} [1 2 3 4 6] 5{6} [1 2 3 4 6]{9} [1 2 3 4 6] 5{7} [1 2 3 4 6]{8} [1 2 3 4 6] 5{8} [1 2 3 4 6]*) | ([1 2 3 4 6]* 5{11} [1 2 3 4 6]{4} [1 2 3 4 6] 5{9} [1 2 3 4 6]{6} [1 2 3 4 6] 5{8} [1 2 3 4 6]{7} [1 2 3 4 6] 5{4} [1 2 3 4 6]{2} 5{2} [1 2 3 4 6]{7} [1 2 3 4 6] 5{4} [1 2 3 4 6]{3} 5{1} [1 2 3 4 6]{7} [1 2 3 4 6] 5{4} [1 2 3 4 6]{11} [1 2 3 4 6] 5{2} [1 2 3 4 6]{13} [1 2 3 4 6] 5{1} [1 2 3 4 6]*) | ([1 2 3 4 6]* 5{8} [1 2 3 4 6] [1 2 3 4 6]{8} 5{7} [1 2 3 4 6] [1 2 3 4 6]{9} 5{6} [1 2 3 4 6] [1 2 3 4 6]{9} 5{6} [1 2 3 4 6] [1 2 3 4 6]{12} 5{3} [1 2 3 4 6] [1 2 3 4 6]{12} 5{3} [1 2 3 4 6] [1 2 3 4 6]{11} 5{4} [1 2 3 4 6] [1 2 3 4 6]{10} 5{5} [1 2 3 4 6] [1 2 3 4 6]{13} 5{2} [1 2 3 4 6] [1 2 3 4 6]{14} 5{1} [1 2 3 4 6] [1 2 3 4 6]{14} 5{1} [1 2 3 4 6]*) | ([1 2 3 4 6]* 5{1} [1 2 3 4 6]{14} [1 2 3 4 6] 5{2} [1 2 3 4 6]{13} [1 2 3 4 6] 5{4} [1 2 3 4 6]{11} [1 2 3 4 6] 5{4} [1 2 3 4 6]{3} 5{1} [1 2 3 4 6]{7} [1 2 3 4 6] 5{4} [1 2 3 4 6]{2} 5{2} [1 2 3 4 6]{7} [1 2 3 4 6] 5{8} [1 2 3 4 6]{7} [1 2 3 4 6] 5{9} [1 2 3 4 6]{6} [1 2 3 4 6] 5{11} [1 2 3 4 6]*) | ([1 2 3 4 6]* 5{1} [1 2 3 4 6] [1 2 3 4 6]{14} 5{1} [1 2 3 4 6] [1 2 3 4 6]{13} 5{2} [1 2 3 4 6] [1 2 3 4 6]{10} 5{5} [1 2 3 4 6] [1 2 3 4 6]{11} 5{4} [1 2 3 4 6] [1 2 3 4 6]{12} 5{3} [1 2 3 4 6] [1 2 3 4 6]{12} 5{3} [1 2 3 4 6] [1 2 3 4 6]{9} 5{6} [1 2 3 4 6] [1 2 3 4 6]{9} 5{6} [1 2 3 4 6] [1 2 3 4 6]{8} 5{7} [1 2 3 4 6] [1 2 3 4 6]{7} 5{8} [1 2 3 4 6]*) | ([1 2 3 4 6]* 5{11} [1 2 3 4 6] [1 2 3 4 6]{6} 5{9} [1 2 3 4 6] [1 2 3 4 6]{7} 5{8} [1 2 3 4 6] [1 2 3 4 6]{7} 5{2} [1 2 3 4 6]{2} 5{4} [1 2 3 4 6] [1 2 3 4 6]{7} 5{1} [1 2 3 4 6]{3} 5{4} [1 2 3 4 6] [1 2 3 4 6]{11} 5{4} [1 2 3 4 6] [1 2 3 4 6]{13} 5{2} [1 2 3 4 6] [1 2 3 4 6]{14} 5{1} [1 2 3 4 6]*) | ([1 2 3 4 6]* 5{8} [1 2 3 4 6]{7} [1 2 3 4 6] 5{7} [1 2 3 4 6]{8} [1 2 3 4 6] 5{6} [1 2 3 4 6]{9} [1 2 3 4 6] 5{6} [1 2 3 4 6]{9} [1 2 3 4 6] 5{3} [1 2 3 4 6]{12} [1 2 3 4 6] 5{3} [1 2 3 4 6]{12} [1 2 3 4 6] 5{4} [1 2 3 4 6]{11} [1 2 3 4 6] 5{5} [1 2 3 4 6]{10} [1 2 3 4 6] 5{2} [1 2 3 4 6]{13} [1 2 3 4 6] 5{1} [1 2 3 4 6]{14} [1 2 3 4 6] 5{1} [1 2 3 4 6]*) )",
];
